Route #1: 118 110 112 126 108 60 61 57 101 95 93 54 
Route #2: 68 123 131 125 119 91 85 30 105 100 98 97 
Route #3: 64 34 102 104 89 94 87 96 26 24 32 46 69 65 132 113 130 19 
Route #4: 77 72 134 1 48 52 28 35 29 92 45 16 15 5 9 11 12 13 43 90 50 115 120 129 81 18 
Route #5: 71 66 133 20 63 83 62 51 31 53 38 39 40 44 2 4 7 6 8 42 84 49 22 79 73 
Route #6: 27 86 55 103 56 75 21 47 78 121 114 127 128 70 17 67 82 
Route #7: 76 23 99 41 3 10 88 14 37 36 58 59 25 74 80 33 117 111 122 124 116 109 106 107 
cost 1748
